(declare-fun x () Int)
(declare-fun a () Int)
(declare-fun b () Int)
;(declare-fun p (Int) Int)

(assert (= (- a b ) 1))
(assert (= (- b a) 2))
;(assert (<= a 2))
;(assert (>= a 4))
;(assert (= (p x) 3))
;(assert (= (p a) 4))
;(assert (= (p b) 5))
(check-sat)
